(set-logic QF_S)
(set-option :strings-exp true)
(set-option :produce-models true)
(declare-fun sigmaStar_0 () String)
(declare-fun sigmaStar_1 () String)
(declare-fun sigmaStar_2 () String)
(declare-fun sigmaStar_15 () String)
(declare-fun literal_16 () String)
(declare-fun x_17 () String)
(assert (= literal_16 "\x63\x6f\x75\x72\x73\x65\x69\x64\x2f\x2f\x72\x65\x73\x6f\x75\x72\x63\x65\x2f\x2f"))
(assert (= x_17 (str.++ literal_16 sigmaStar_15)))
(assert (str.in.re x_17 (re.++ (re.* re.allchar) (re.++ (str.to.re "\x2f\x65\x76\x69\x6c") (re.* re.allchar)))))
(check-sat)
(get-model)
